0 6666 8041 3212 5644 5456 6439 2536 4245 3214
5929 0 3483 1677 1126 1673 1994 9739 8414 5412
6983 2379 0 3068 3428 1918 4028 4321 10448 4212
5922 1290 3456 0 2339 1645 2939 7554 9358 4421
5571 1058 4150 3221 0 2340 1888 7203 8308 5521
5220 3333 3218 2682 1663 0 3642 6852 10062 5521
6116 2639 5731 4414 2519 3921 0 7748 4321 4412
3246 10001 10220 8913 11522 7635 11754 0 3519 5765
4875 9396 12488 11170 9276 10677 9508 3520 0 7764
2114 5421 13312 12113 4321 15543 1456 4213 1234 0
